
  32    4
  10   10   10   10

   0   0   0   0   0   2 2 31 
   7   1   0   1   1   2 7 3 
   7   4   0   4   3   3 30 20 4 
   2   0   1   3   7   2 29 5 
   4   0   4   3   3   2 13 6 
   1   6   6   2   0   3 28 27 8 
   3   4   0   6   4   1 8 
   6   5   1   0   3   2 26 9 
   7   2   0   5   2   1 10 
   2   3   0   3   1   3 25 17 11 
   9   4   4   6   0   2 19 12 
   7   2   4   0   6   1 14 
   2   4   5   6   0   1 14 
   8   0   5   5   5   1 15 
   4   6   3   0   4   2 24 16 
   3   0   3   4   1   3 23 22 18 
   4   5   2   5   0   2 23 18 
  10   3   0   2   6   1 21 
   2   4   0   5   6   1 22 
   6   4   0   4   4   1 21 
   9   4   2   0   3   1 32
   5   3   0   1   5   1 32
   5   6   5   0   2   1 32
   6   0   5   5   2   1 32
   4   4   3   7   0   1 32
   2   0   6   5   6   1 32
   3   0   8   5   5   1 32
  10   4   0   3   8   1 32
   5   4   5   0   5   1 32
   8   4   0   3   4   1 32
   7   6   4   3   0   1 32
   0   0   0   0   0   0 
